10
0 30 94 54 29 98 85 40 56 10 
35 0 94 75 44 2 77 8 38 1 
24 49 0 52 73 98 76 87 14 36 
90 91 94 0 36 52 20 61 67 28 
14 98 15 68 0 54 85 35 70 3 
29 47 66 95 44 0 15 25 35 20 
91 67 84 100 97 48 0 74 84 74 
67 25 1 50 19 39 88 0 69 93 
97 89 77 85 13 75 82 60 0 3 
79 64 58 79 52 57 25 3 29 0 
